c description: Random 2-CNF over 15 variables and 15 clauses
c generator: CNFgen (0.9.0)
c copyright: (C) 2012-2020 Massimo Lauria <massimo.lauria@uniroma1.it>
c url: https://massimolauria.net/cnfgen
c
p cnf 15 15
7 12 0
-5 9 0
-2 9 0
4 -8 0
3 14 0
5 12 0
6 -15 0
-5 8 0
3 -14 0
-6 -8 0
2 12 0
7 -8 0
8 14 0
-7 8 0
3 12 0